15
1 0 4
2 0 3
2 1 5
3 0 8
3 1 7
3 2 6
4 0 4
4 1 2
4 2 4
4 3 3
5 0 3
5 1 2
5 2 6
5 3 6
5 4 7
6 0 4
6 1 8
6 2 1
6 3 8
6 4 2
6 5 2
7 0 4
7 1 9
7 2 7
7 3 5
7 4 3
7 5 1
7 6 9
8 0 6
8 1 7
8 2 2
8 3 1
8 4 4
8 5 1
8 6 3
8 7 4
9 0 7
9 1 5
9 2 3
9 3 9
9 4 8
9 5 1
9 6 5
9 7 1
9 8 1
10 0 8
10 1 8
10 2 2
10 3 1
10 4 3
10 5 4
10 6 5
10 7 9
10 8 7
10 9 8
11 0 2
11 1 1
11 2 1
11 3 8
11 4 2
11 5 9
11 6 3
11 7 9
11 8 7
11 9 8
11 10 8
12 0 7
12 1 1
12 2 8
12 3 5
12 4 5
12 5 2
12 6 2
12 7 4
12 8 2
12 9 1
12 10 5
12 11 9
13 0 2
13 1 5
13 2 6
13 3 3
13 4 2
13 5 9
13 6 9
13 7 9
13 8 3
13 9 9
13 10 4
13 11 4
13 12 9
14 0 7
14 1 4
14 2 5
14 3 6
14 4 6
14 5 6
14 6 7
14 7 9
14 8 6
14 9 9
14 10 4
14 11 3
14 12 1
14 13 5
